
Gurobi 7.5.2 (linux64) logging started Thu Mar 21 01:06:54 2019

Changed value of parameter LogFile to /home/aniket/python_scripts/Plasmids/exp/2019-03-21__iterative_with_questionable/output/sample_116/1.2.1/nplasmids_1/MILP/m.log
   Prev: gurobi.log  Default: 
Changed value of parameter TimeLimit to 2400.0
   Prev: 1e+100  Min: 0.0  Max: 1e+100  Default: 1e+100
Optimize a model with 3359 rows, 976 columns and 13914 nonzeros
Variable types: 259 continuous, 717 integer (373 binary)
Coefficient statistics:
  Matrix range     [2e-01, 1e+06]
  Objective range  [3e-04, 6e+05]
  Bounds range     [1e+00, 1e+00]
  RHS range        [8e-01, 1e+06]
Presolve removed 2700 rows and 605 columns
Presolve time: 0.02s
Presolved: 659 rows, 371 columns, 2181 nonzeros
Variable types: 79 continuous, 292 integer (214 binary)
Found heuristic solution: objective -75836.50969

Root relaxation: objective -2.536970e+05, 479 iterations, 0.01 seconds

    Nodes    |    Current Node    |     Objective Bounds      |     Work
 Expl Unexpl |  Obj  Depth IntInf | Incumbent    BestBd   Gap | It/Node Time

     0     0 -253697.01    0   76 -75836.510 -253697.01   235%     -    0s
     0     0 -250865.23    0   23 -75836.510 -250865.23   231%     -    0s
H    0     0                    -109667.9655 -250865.23   129%     -    0s
     0     0 -249867.86    0   13 -109667.97 -249867.86   128%     -    0s
     0     0 -249667.83    0   21 -109667.97 -249667.83   128%     -    0s
H    0     0                    -112288.1870 -249667.83   122%     -    0s
     0     0 -249667.63    0   17 -112288.19 -249667.63   122%     -    0s
     0     0 -249660.96    0    2 -112288.19 -249660.96   122%     -    0s
H    0     0                    -245712.5168 -249660.96  1.61%     -    0s
     0     0 -249655.34    0    2 -245712.52 -249655.34  1.60%     -    0s
H    0     0                    -245713.2435 -249655.34  1.60%     -    0s
*    0     0               0    -249649.1022 -249649.10  0.00%     -    0s

Explored 1 nodes (743 simplex iterations) in 0.07 seconds
Thread count was 4 (of 4 available processors)

Solution count 6: -249649 -245713 -245713 ... -75836.5

Optimal solution found (tolerance 1.00e-04)
Best objective -2.496491021528e+05, best bound -2.496491021528e+05, gap 0.0000%

Gurobi 7.5.2 (linux64) logging started Thu Mar 21 01:06:54 2019

Changed value of parameter LogFile to /home/aniket/python_scripts/Plasmids/exp/2019-03-21__iterative_with_questionable/output/sample_116/1.2.1/nplasmids_1/MILP/m.log
   Prev: gurobi.log  Default: 
Changed value of parameter TimeLimit to 2400.0
   Prev: 1e+100  Min: 0.0  Max: 1e+100  Default: 1e+100
Optimize a model with 2999 rows, 871 columns and 11722 nonzeros
Variable types: 232 continuous, 639 integer (331 binary)
Coefficient statistics:
  Matrix range     [1e-01, 1e+06]
  Objective range  [3e-04, 2e+05]
  Bounds range     [1e+00, 1e+00]
  RHS range        [1e-01, 1e+06]
Presolve removed 2348 rows and 503 columns
Presolve time: 0.01s
Presolved: 651 rows, 368 columns, 2155 nonzeros
Variable types: 78 continuous, 290 integer (213 binary)
Found heuristic solution: objective -11368.71756

Root relaxation: objective -1.132705e+05, 174 iterations, 0.00 seconds

    Nodes    |    Current Node    |     Objective Bounds      |     Work
 Expl Unexpl |  Obj  Depth IntInf | Incumbent    BestBd   Gap | It/Node Time

*    0     0               0    -113270.4622 -113270.46  0.00%     -    0s

Explored 0 nodes (174 simplex iterations) in 0.02 seconds
Thread count was 4 (of 4 available processors)

Solution count 2: -113270 -11368.7 
No other solutions better than -113270

Optimal solution found (tolerance 1.00e-04)
Best objective -1.132704622447e+05, best bound -1.132704622447e+05, gap 0.0000%

Gurobi 7.5.2 (linux64) logging started Thu Mar 21 01:06:54 2019

Changed value of parameter LogFile to /home/aniket/python_scripts/Plasmids/exp/2019-03-21__iterative_with_questionable/output/sample_116/1.2.1/nplasmids_1/MILP/m.log
   Prev: gurobi.log  Default: 
Changed value of parameter TimeLimit to 2400.0
   Prev: 1e+100  Min: 0.0  Max: 1e+100  Default: 1e+100
Optimize a model with 2999 rows, 871 columns and 11722 nonzeros
Variable types: 232 continuous, 639 integer (331 binary)
Coefficient statistics:
  Matrix range     [1e-01, 1e+06]
  Objective range  [3e-04, 2e+05]
  Bounds range     [1e+00, 1e+00]
  RHS range        [1e-01, 1e+06]
Presolve removed 2345 rows and 503 columns
Presolve time: 0.01s
Presolved: 654 rows, 368 columns, 2165 nonzeros
Variable types: 78 continuous, 290 integer (213 binary)
Found heuristic solution: objective -11368.71756

Root relaxation: objective -1.080462e+05, 275 iterations, 0.00 seconds

    Nodes    |    Current Node    |     Objective Bounds      |     Work
 Expl Unexpl |  Obj  Depth IntInf | Incumbent    BestBd   Gap | It/Node Time

     0     0 -108046.24    0  107 -11368.718 -108046.24   850%     -    0s
H    0     0                    -74097.10703 -108046.24  45.8%     -    0s
H    0     0                    -104241.5836 -108046.24  3.65%     -    0s
H    0     0                    -107191.8334 -108046.24  0.80%     -    0s
     0     0     cutoff    0      -107191.83 -107191.83  0.00%     -    0s

Cutting planes:
  Flow cover: 1

Explored 1 nodes (332 simplex iterations) in 0.03 seconds
Thread count was 4 (of 4 available processors)

Solution count 4: -107192 -104242 -74097.1 -11368.7 

Optimal solution found (tolerance 1.00e-04)
Best objective -1.071918333913e+05, best bound -1.071918333913e+05, gap 0.0000%

Gurobi 7.5.2 (linux64) logging started Thu Mar 21 01:06:54 2019

Changed value of parameter LogFile to /home/aniket/python_scripts/Plasmids/exp/2019-03-21__iterative_with_questionable/output/sample_116/1.2.1/nplasmids_1/MILP/m.log
   Prev: gurobi.log  Default: 
Changed value of parameter TimeLimit to 2400.0
   Prev: 1e+100  Min: 0.0  Max: 1e+100  Default: 1e+100
Optimize a model with 2961 rows, 860 columns and 11497 nonzeros
Variable types: 229 continuous, 631 integer (327 binary)
Coefficient statistics:
  Matrix range     [1e-01, 1e+06]
  Objective range  [3e-04, 2e+05]
  Bounds range     [1e+00, 1e+00]
  RHS range        [1e-01, 1e+06]
Presolve removed 2336 rows and 495 columns
Presolve time: 0.02s
Presolved: 625 rows, 365 columns, 2063 nonzeros
Variable types: 77 continuous, 288 integer (212 binary)
Found heuristic solution: objective -2988.408983

Root relaxation: objective -6.733798e+03, 448 iterations, 0.01 seconds

    Nodes    |    Current Node    |     Objective Bounds      |     Work
 Expl Unexpl |  Obj  Depth IntInf | Incumbent    BestBd   Gap | It/Node Time

     0     0 -6733.7980    0   79 -2988.4090 -6733.7980   125%     -    0s
     0     0 -5390.7882    0   69 -2988.4090 -5390.7882  80.4%     -    0s
     0     0 -5150.8631    0   19 -2988.4090 -5150.8631  72.4%     -    0s
     0     0 -5143.9842    0   22 -2988.4090 -5143.9842  72.1%     -    0s
     0     0 -5143.7432    0   32 -2988.4090 -5143.7432  72.1%     -    0s
     0     0 -5062.8541    0   16 -2988.4090 -5062.8541  69.4%     -    0s
H    0     0                    -4926.406372 -5062.8541  2.77%     -    0s
     0     0 -5062.2467    0   16 -4926.4064 -5062.2467  2.76%     -    0s
     0     0 -4991.6441    0    5 -4926.4064 -4991.6441  1.32%     -    0s
*    0     0               0    -4940.595125 -4940.5951  0.00%     -    0s

Explored 1 nodes (960 simplex iterations) in 0.07 seconds
Thread count was 4 (of 4 available processors)

Solution count 3: -4940.6 -4926.41 -2988.41 
No other solutions better than -4940.6

Optimal solution found (tolerance 1.00e-04)
Best objective -4.940595124730e+03, best bound -4.940595124730e+03, gap 0.0000%

Gurobi 7.5.2 (linux64) logging started Thu Mar 21 01:06:54 2019

Changed value of parameter LogFile to /home/aniket/python_scripts/Plasmids/exp/2019-03-21__iterative_with_questionable/output/sample_116/1.2.1/nplasmids_1/MILP/m.log
   Prev: gurobi.log  Default: 
Changed value of parameter TimeLimit to 2400.0
   Prev: 1e+100  Min: 0.0  Max: 1e+100  Default: 1e+100
Optimize a model with 2920 rows, 848 columns and 11260 nonzeros
Variable types: 226 continuous, 622 integer (322 binary)
Coefficient statistics:
  Matrix range     [1e-01, 1e+06]
  Objective range  [3e-04, 2e+05]
  Bounds range     [1e+00, 1e+00]
  RHS range        [1e-01, 1e+06]
Presolve removed 2343 rows and 493 columns
Presolve time: 0.02s
Presolved: 577 rows, 355 columns, 1877 nonzeros
Variable types: 75 continuous, 280 integer (280 binary)

Root relaxation: objective -3.749628e+03, 389 iterations, 0.00 seconds

    Nodes    |    Current Node    |     Objective Bounds      |     Work
 Expl Unexpl |  Obj  Depth IntInf | Incumbent    BestBd   Gap | It/Node Time

     0     0 -3749.6284    0   53          - -3749.6284      -     -    0s
     0     0 -2812.3672    0   45          - -2812.3672      -     -    0s
     0     0 -2809.9742    0   44          - -2809.9742      -     -    0s
     0     0 -2809.3454    0   44          - -2809.3454      -     -    0s
     0     0 -2807.3775    0   53          - -2807.3775      -     -    0s
     0     0 -2375.8829    0   54          - -2375.8829      -     -    0s
     0     0 -2308.8834    0   64          - -2308.8834      -     -    0s
     0     0 -2297.9778    0   64          - -2297.9778      -     -    0s
     0     0 -2271.4647    0   66          - -2271.4647      -     -    0s
     0     0 -2057.7086    0   65          - -2057.7086      -     -    0s
     0     0 -1894.0483    0   67          - -1894.0483      -     -    0s
     0     0 -1862.5108    0   68          - -1862.5108      -     -    0s
     0     0 -1862.5108    0   68          - -1862.5108      -     -    0s
     0     0 -1840.0159    0    2          - -1840.0159      -     -    0s
*    0     0               0    -1831.252532 -1831.2525  0.00%     -    0s

Cutting planes:
  Gomory: 7
  Cover: 51
  Implied bound: 2
  Clique: 17
  MIR: 14
  Flow cover: 15
  Zero half: 6

Explored 1 nodes (664 simplex iterations) in 0.07 seconds
Thread count was 4 (of 4 available processors)

Solution count 1: -1831.25 

Optimal solution found (tolerance 1.00e-04)
Best objective -1.831252531524e+03, best bound -1.831252531524e+03, gap 0.0000%

Gurobi 7.5.2 (linux64) logging started Thu Mar 21 01:06:54 2019

Changed value of parameter LogFile to /home/aniket/python_scripts/Plasmids/exp/2019-03-21__iterative_with_questionable/output/sample_116/1.2.1/nplasmids_1/MILP/m.log
   Prev: gurobi.log  Default: 
Changed value of parameter TimeLimit to 2400.0
   Prev: 1e+100  Min: 0.0  Max: 1e+100  Default: 1e+100
Optimize a model with 2879 rows, 836 columns and 11026 nonzeros
Variable types: 223 continuous, 613 integer (317 binary)
Coefficient statistics:
  Matrix range     [1e-01, 1e+06]
  Objective range  [3e-04, 2e+05]
  Bounds range     [1e+00, 1e+00]
  RHS range        [1e-01, 1e+06]
Presolve removed 2338 rows and 492 columns
Presolve time: 0.01s
Presolved: 541 rows, 344 columns, 1708 nonzeros
Variable types: 73 continuous, 271 integer (271 binary)
Found heuristic solution: objective -334.3493602

Root relaxation: objective -3.512707e+03, 284 iterations, 0.00 seconds

    Nodes    |    Current Node    |     Objective Bounds      |     Work
 Expl Unexpl |  Obj  Depth IntInf | Incumbent    BestBd   Gap | It/Node Time

     0     0 -3512.7067    0   34 -334.34936 -3512.7067   951%     -    0s
     0     0 -2578.8034    0   10 -334.34936 -2578.8034   671%     -    0s
     0     0 -2576.0278    0   10 -334.34936 -2576.0278   670%     -    0s
     0     0 -2282.0826    0   17 -334.34936 -2282.0826   583%     -    0s
     0     0 -2099.5964    0    6 -334.34936 -2099.5964   528%     -    0s
     0     0 -1521.3414    0   17 -334.34936 -1521.3414   355%     -    0s
H    0     0                    -781.9075660 -1521.3414  94.6%     -    0s
     0     0 -813.33510    0    2 -781.90757 -813.33510  4.02%     -    0s
     0     0 -809.69162    0    2 -781.90757 -809.69162  3.55%     -    0s
*    0     0               0    -782.9487869 -782.94879  0.00%     -    0s

Explored 1 nodes (413 simplex iterations) in 0.04 seconds
Thread count was 4 (of 4 available processors)

Solution count 3: -782.949 -781.908 -334.349 

Optimal solution found (tolerance 1.00e-04)
Best objective -7.829487868934e+02, best bound -7.829487868934e+02, gap 0.0000%

Gurobi 7.5.2 (linux64) logging started Thu Mar 21 01:06:55 2019

Changed value of parameter LogFile to /home/aniket/python_scripts/Plasmids/exp/2019-03-21__iterative_with_questionable/output/sample_116/1.2.1/nplasmids_1/MILP/m.log
   Prev: gurobi.log  Default: 
Changed value of parameter TimeLimit to 2400.0
   Prev: 1e+100  Min: 0.0  Max: 1e+100  Default: 1e+100
Optimize a model with 2836 rows, 824 columns and 10785 nonzeros
Variable types: 220 continuous, 604 integer (312 binary)
Coefficient statistics:
  Matrix range     [1e-01, 1e+06]
  Objective range  [3e-04, 2e+05]
  Bounds range     [1e+00, 1e+00]
  RHS range        [1e-01, 1e+06]
Presolve removed 1086 rows and 0 columns
Presolve time: 0.00s

Explored 0 nodes (0 simplex iterations) in 0.00 seconds
Thread count was 1 (of 4 available processors)

Solution count 0

Model is infeasible or unbounded
Best objective -, best bound -, gap -
Presolve removed 1086 rows and 0 columns
Presolve time: 0.00s

Explored 0 nodes (0 simplex iterations) in 0.00 seconds
Thread count was 1 (of 4 available processors)

Solution count 0

Model is infeasible
Best objective -, best bound -, gap -

Computing Irreducible Inconsistent Subsystem (IIS)...

      Constraints           Bounds       Runtime
     Min       Max       Min      Max
------------------------------------------------
        0     2408         0      512         0s
       77       77         0        0         2s

IIS computed: 77 constraints, 0 bounds
IIS runtime: 2.23 seconds
Warning: linear constraint 0 and linear constraint 1 have the same name "extr_ubd"
